NAME: tsp10_21
COMMENT: 10-tsp problem (Padberg/Rinaldi)
TYPE: TSP
DIMENSION: 10
EDGE_WEIGHT_TYPE : EUC_2D
NODE_COORD_SECTION
1 5 7
2 23 28
3 12 8
4 36 34
5 11 16
6 37 15
7 2 12
8 29 27
9 14 15
10 31 14
